c defined variables: 33 34 35 36 37 38 39 40 41 42 43 44 45 46 47 48 49 50 51 52 53 54 55 56 57 58 59 60 61 62 63 64 65 66 67 68 69 70 71 72 73 74 75 76 77 78 79 80 81 82 83 84 85 86 87 88 89 90 91 92 93 94 95 96 97 98 99 100 101 102 103 104 105 106 107 108 109 110 111 112 113 114 115 116 117 118 119 120 121 122 123 124 125 126 127 128 129 130 131 132 133 134 135 136 137 138 139 140 141 142 143 144 145 146 147 148 149 150 151 152 153 154 155 156 157 158 159 160 161 162 163 164 165 166 167 182 183 184 185 186 187 188 189 190 191 192 193 194 195 196 197 198 199 200 201 202 203 204 205 206 207 208 209 210 211 212 213 214 215 216 217 218 219 220 221 222 223 224 225 226 227 228 229 230 231 232 233 234 235 236 237 238 239 240 241 242 243 244 245 246 247 248 249 250 251 252 253 254 255 256 257 261 262 263 264 266 267 268 269 270 271 272 273 274 275 276 277 278 280 283 284 285 286 287 288 289 290 291 292 293 294 295 296 297 298 299 300 301 302 303 304 305 306 307 308 309 310 311 312 313 314 315 316 317 318 319 320 
p cnf 1430 2155
a 1 2 3 4 5 6 7 8 9 10 11 12 13 14 15 16 17 18 19 20 21 22 23 24 25 26 27 28 29 30 31 32 172 173 174 175 176 177 178 179 180 181 0
e 33 34 35 36 37 38 39 40 41 42 43 44 45 46 47 48 49 50 51 52 53 54 55 56 57 58 59 60 61 62 63 64 65 66 67 68 69 70 71 72 73 74 75 76 77 78 79 80 81 82 83 84 85 86 87 88 89 90 91 92 93 94 95 96 97 98 99 100 101 102 103 104 105 106 107 108 109 110 111 112 113 114 115 116 117 118 119 120 121 122 123 124 125 126 127 128 129 130 131 132 133 134 135 136 137 138 139 140 141 142 143 144 145 146 147 148 149 150 151 152 153 154 155 156 157 158 159 160 161 162 163 164 165 166 167 182 183 184 185 186 187 188 189 190 191 192 193 194 195 196 197 198 199 200 201 202 203 204 205 206 207 208 209 210 211 212 213 214 215 216 217 218 219 220 221 222 223 224 225 226 227 228 229 230 231 232 233 234 235 236 237 238 239 240 241 242 243 244 245 246 247 248 249 250 251 252 253 254 255 256 257 261 262 263 264 266 267 268 269 270 271 272 273 274 275 276 277 278 280 283 284 285 286 287 288 289 290 291 292 293 294 295 296 297 298 299 300 301 302 303 304 305 306 307 308 309 310 311 312 313 314 315 316 317 318 319 320 1175 1176 1177 1178 1179 1180 1181 1182 1183 1184 1185 1186 1187 1188 1189 1190 1191 1192 1193 1194 1195 1196 1197 1198 1199 1200 1201 1202 1203 1204 1205 1206 1207 1208 1209 1210 1211 1212 1213 1214 1215 1216 1217 1218 1219 1220 1221 1222 1223 1224 1225 1226 1227 1228 1229 1230 1231 1232 1233 1234 1235 1236 1237 1238 1239 1240 1241 1242 1243 1244 1245 1246 1247 1248 1249 1250 1251 1252 1253 1254 1255 1256 1257 1258 1259 1260 1261 1262 1263 1264 1265 1266 1267 1268 1269 1270 1271 1272 1273 1274 1275 1276 1277 1278 1279 1280 1281 1282 1283 1284 1285 1286 1287 1288 1289 1290 1291 1292 1293 1294 1295 1296 1297 1298 1299 1300 1301 1302 1303 1304 1305 1306 1307 1308 1309 1310 1311 1312 1313 1314 1315 1316 1317 1318 1319 1320 1321 1322 1323 1324 1325 1326 1327 1328 1329 1330 1331 1332 1333 1334 1335 1336 1337 1338 1339 1340 1341 1342 1343 1344 1345 1346 1347 1348 1349 1350 1351 1352 1353 1354 1355 1356 1357 1358 1359 1360 1361 1362 1363 1364 1365 1366 1367 1368 1369 1370 1371 1372 1373 1374 1375 1376 1377 1378 1379 1380 1381 1382 1383 1384 1385 1386 1387 1388 1389 1390 1391 1392 1393 1394 1395 1396 1397 1398 1399 1400 1401 1402 1403 1404 1405 1406 1407 1408 1409 1410 1411 1412 1413 1414 1415 1416 1417 1418 1419 1420 1421 1422 1423 1424 1425 1426 1427 1428 1429 1430 0
d 168 172 173 0
d 169 174 175 176 177 178 179 180 181 0
d 170 174 175 176 177 178 179 180 181 0
d 171 174 175 176 177 178 179 180 181 0
d 258 1 2 3 4 5 6 7 8 9 10 11 12 13 14 15 16 17 18 19 20 21 22 23 24 25 26 27 28 29 30 31 32 172 173 174 175 176 177 178 179 180 181 0
d 259 1 2 3 4 5 6 7 8 9 10 11 12 13 14 15 16 17 18 19 20 21 22 23 24 25 26 27 28 29 30 31 32 172 173 174 175 176 177 178 179 180 181 0
d 260 1 2 3 4 5 6 7 8 9 10 11 12 13 14 15 16 17 18 19 20 21 22 23 24 25 26 27 28 29 30 31 32 172 173 174 175 176 177 178 179 180 181 0
d 265 1 2 3 4 5 6 7 8 9 10 11 12 13 14 15 16 17 18 19 20 21 22 23 24 25 26 27 28 29 30 31 32 172 173 174 175 176 177 178 179 180 181 0
d 279 1 2 3 4 5 6 7 8 9 10 11 12 13 14 15 16 17 18 19 20 21 22 23 24 25 26 27 28 29 30 31 32 172 173 174 175 176 177 178 179 180 181 0
d 281 1 2 3 4 5 6 7 8 9 10 11 12 13 14 15 16 17 18 19 20 21 22 23 24 25 26 27 28 29 30 31 32 172 173 174 175 176 177 178 179 180 181 0
d 282 1 2 3 4 5 6 7 8 9 10 11 12 13 14 15 16 17 18 19 20 21 22 23 24 25 26 27 28 29 30 31 32 172 173 174 175 176 177 178 179 180 181 0
1175 -33 0
-1175 33 0
1176 -34 0
-1176 34 0
-1177 -35 0
1177 35 0
1178 -36 0
-1178 36 0
1179 -37 0
-1179 37 0
-1180 -38 0
1180 38 0
1181 -39 0
-1181 39 0
1182 -40 0
-1182 40 0
-1183 -41 0
1183 41 0
-12 -42 0
12 42 0
-1184 -43 0
1184 43 0
-11 -44 0
11 44 0
-1185 -45 0
1185 45 0
-10 -46 0
10 46 0
-1186 -47 0
1186 47 0
-9 -48 0
9 48 0
-1187 -49 0
1187 49 0
-49 -50 0
49 50 0
1188 -51 0
-1188 51 0
1190 -52 0
-1190 52 0
1192 -53 0
-1192 53 0
-1195 -54 0
1195 54 0
1196 -55 0
-1196 55 0
1197 -56 0
-1197 56 0
-1198 -57 0
1198 57 0
1199 -58 0
-1199 58 0
1200 -59 0
-1200 59 0
1201 -60 0
-1201 60 0
1202 -61 0
-1202 61 0
-1203 -62 0
1203 62 0
1204 -63 0
-1204 63 0
1205 -64 0
-1205 64 0
-1206 -65 0
1206 65 0
1207 -66 0
-1207 66 0
1208 -67 0
-1208 67 0
-1209 -68 0
1209 68 0
1210 -69 0
-1210 69 0
1211 -70 0
-1211 70 0
-1212 -71 0
1212 71 0
-8 -72 0
8 72 0
-1213 -73 0
1213 73 0
-7 -74 0
7 74 0
-1214 -75 0
1214 75 0
-6 -76 0
6 76 0
-1215 -77 0
1215 77 0
-5 -78 0
5 78 0
-1216 -79 0
1216 79 0
-79 -80 0
79 80 0
1217 -81 0
-1217 81 0
1219 -82 0
-1219 82 0
1221 -83 0
-1221 83 0
-1224 -84 0
1224 84 0
1225 -85 0
-1225 85 0
1226 -86 0
-1226 86 0
-1227 -87 0
1227 87 0
1228 -88 0
-1228 88 0
1229 -89 0
-1229 89 0
1230 -90 0
-1230 90 0
1231 -91 0
-1231 91 0
-1232 -92 0
1232 92 0
1233 -93 0
-1233 93 0
1234 -94 0
-1234 94 0
-1235 -95 0
1235 95 0
1236 -96 0
-1236 96 0
1237 -97 0
-1237 97 0
-1238 -98 0
1238 98 0
1239 -99 0
-1239 99 0
1240 -100 0
-1240 100 0
-1241 -101 0
1241 101 0
-4 -102 0
4 102 0
-1242 -103 0
1242 103 0
-3 -104 0
3 104 0
-1243 -105 0
1243 105 0
-2 -106 0
2 106 0
-1244 -107 0
1244 107 0
-1 -108 0
1 108 0
-1245 -109 0
1245 109 0
-109 -110 0
109 110 0
1246 -111 0
-1246 111 0
1248 -112 0
-1248 112 0
1250 -113 0
-1250 113 0
-1253 -114 0
1253 114 0
1254 -115 0
-1254 115 0
1255 -116 0
-1255 116 0
-1256 -117 0
1256 117 0
1257 -118 0
-1257 118 0
1258 -119 0
-1258 119 0
1259 -120 0
-1259 120 0
1260 -121 0
-1260 121 0
-1261 -122 0
1261 122 0
1262 -123 0
-1262 123 0
1263 -124 0
-1263 124 0
-1264 -125 0
1264 125 0
1265 -126 0
-1265 126 0
1266 -127 0
-1266 127 0
-1267 -128 0
1267 128 0
1268 -129 0
-1268 129 0
1269 -130 0
-1269 130 0
-1270 -131 0
1270 131 0
-16 -132 0
16 132 0
-1271 -133 0
1271 133 0
-15 -134 0
15 134 0
-1272 -135 0
1272 135 0
-14 -136 0
14 136 0
-1273 -137 0
1273 137 0
-13 -138 0
13 138 0
-1274 -139 0
1274 139 0
-139 -140 0
139 140 0
1275 -141 0
-1275 141 0
1277 -142 0
-1277 142 0
1279 -143 0
-1279 143 0
-1282 -144 0
1282 144 0
1283 -145 0
-1283 145 0
1284 -146 0
-1284 146 0
-1285 -147 0
1285 147 0
1286 -148 0
-1286 148 0
1287 -149 0
-1287 149 0
-144 -150 0
144 150 0
-1288 -151 0
1288 151 0
-54 -152 0
54 152 0
-1289 -153 0
1289 153 0
-84 -154 0
84 154 0
-1290 -155 0
1290 155 0
-114 -156 0
114 156 0
-1291 -157 0
1291 157 0
-157 -158 0
157 158 0
1292 -159 0
-1292 159 0
1294 -160 0
-1294 160 0
1296 -161 0
-1296 161 0
-1299 -162 0
1299 162 0
1300 -163 0
-1300 163 0
1301 -164 0
-1301 164 0
-1302 -165 0
1302 165 0
1303 -166 0
-1303 166 0
1304 -167 0
-1304 167 0
1175 -182 0
-1175 182 0
1176 -183 0
-1176 183 0
-1305 -184 0
1305 184 0
1178 -185 0
-1178 185 0
1179 -186 0
-1179 186 0
-1306 -187 0
1306 187 0
1181 -188 0
-1181 188 0
1182 -189 0
-1182 189 0
-1307 -190 0
1307 190 0
-12 -191 0
12 191 0
-1308 -192 0
1308 192 0
-11 -193 0
11 193 0
-1309 -194 0
1309 194 0
-10 -195 0
10 195 0
-1310 -196 0
1310 196 0
-9 -197 0
9 197 0
-1311 -198 0
1311 198 0
-198 -199 0
198 199 0
1312 -200 0
-1312 200 0
1314 -201 0
-1314 201 0
1316 -202 0
-1316 202 0
-1319 -203 0
1319 203 0
1196 -204 0
-1196 204 0
1197 -205 0
-1197 205 0
-1320 -206 0
1320 206 0
1321 -207 0
-1321 207 0
1322 -208 0
-1322 208 0
1323 -209 0
-1323 209 0
1324 -210 0
-1324 210 0
-1325 -211 0
1325 211 0
1204 -212 0
-1204 212 0
1205 -213 0
-1205 213 0
-1326 -214 0
1326 214 0
1207 -215 0
-1207 215 0
1208 -216 0
-1208 216 0
-1327 -217 0
1327 217 0
1210 -218 0
-1210 218 0
1211 -219 0
-1211 219 0
-1328 -220 0
1328 220 0
-8 -221 0
8 221 0
-221 -222 0
221 222 0
-1329 -223 0
1329 223 0
-7 -224 0
7 224 0
-1330 -225 0
1330 225 0
-6 -226 0
6 226 0
-1331 -227 0
1331 227 0
-5 -228 0
5 228 0
-1332 -229 0
1332 229 0
-229 -230 0
229 230 0
1333 -231 0
-1333 231 0
1335 -232 0
-1335 232 0
1337 -233 0
-1337 233 0
-1340 -234 0
1340 234 0
1225 -235 0
-1225 235 0
1226 -236 0
-1226 236 0
-1341 -237 0
1341 237 0
1342 -238 0
-1342 238 0
1343 -239 0
-1343 239 0
1344 -240 0
-1344 240 0
1345 -241 0
-1345 241 0
-1346 -242 0
1346 242 0
1233 -243 0
-1233 243 0
1234 -244 0
-1234 244 0
-1347 -245 0
1347 245 0
1236 -246 0
-1236 246 0
1237 -247 0
-1237 247 0
-1348 -248 0
1348 248 0
-4 -249 0
4 249 0
-1349 -250 0
1349 250 0
-3 -251 0
3 251 0
-1350 -252 0
1350 252 0
-2 -253 0
2 253 0
-1351 -254 0
1351 254 0
-1 -255 0
1 255 0
-1352 -256 0
1352 256 0
-256 -257 0
256 257 0
-1355 -261 0
1355 261 0
1254 -262 0
-1254 262 0
1255 -263 0
-1255 263 0
-1356 -264 0
1356 264 0
1357 -266 0
-1357 266 0
1358 -267 0
-1358 267 0
1359 -268 0
-1359 268 0
-1360 -269 0
1360 269 0
-203 -270 0
203 270 0
-1361 -271 0
1361 271 0
-234 -272 0
234 272 0
-1362 -273 0
1362 273 0
-261 -274 0
261 274 0
-1363 -275 0
1363 275 0
-275 -276 0
275 276 0
1364 -277 0
-1364 277 0
1366 -278 0
-1366 278 0
-1369 -280 0
1369 280 0
-1370 -283 0
1370 283 0
1372 -284 0
-1372 284 0
1373 -285 0
-1373 285 0
1262 -286 0
-1262 286 0
1263 -287 0
-1263 287 0
-1374 -288 0
1374 288 0
1265 -289 0
-1265 289 0
1266 -290 0
-1266 290 0
-1375 -291 0
1375 291 0
1268 -292 0
-1268 292 0
1269 -293 0
-1269 293 0
-1376 -294 0
1376 294 0
-16 -295 0
16 295 0
-1377 -296 0
1377 296 0
-15 -297 0
15 297 0
-1378 -298 0
1378 298 0
-14 -299 0
14 299 0
-1379 -300 0
1379 300 0
-13 -301 0
13 301 0
-1380 -302 0
1380 302 0
1283 -303 0
-1283 303 0
1284 -304 0
-1284 304 0
-1381 -305 0
1381 305 0
1384 -306 0
-1384 306 0
1387 -307 0
-1387 307 0
1390 -308 0
-1390 308 0
1393 -309 0
-1393 309 0
1395 -310 0
-1395 310 0
1398 -311 0
-1398 311 0
1401 -312 0
-1401 312 0
1409 -313 0
-1409 313 0
1412 -314 0
-1412 314 0
1415 -315 0
-1415 315 0
1418 -316 0
-1418 316 0
-1421 -317 0
1421 317 0
-1424 -318 0
1424 318 0
-1427 -319 0
1427 319 0
1430 -320 0
-1430 320 0
-33 -11 0
-33 27 0
11 -27 33 0
-34 11 0
-34 -27 0
-11 27 34 0
-33 35 0
-34 35 0
-35 33 34 0
-36 -10 0
-36 26 0
10 -26 36 0
-37 10 0
-37 -26 0
-10 26 37 0
-36 38 0
-37 38 0
-38 36 37 0
-39 -9 0
-39 25 0
9 -25 39 0
-40 9 0
-40 -25 0
-9 25 40 0
-39 41 0
-40 41 0
-41 39 40 0
-12 -42 0
12 42 0
-42 43 0
-28 43 0
-43 42 28 0
-11 -44 0
11 44 0
-44 45 0
-27 45 0
-45 44 27 0
-10 -46 0
10 46 0
-46 47 0
-26 47 0
-47 46 26 0
-9 -48 0
9 48 0
-48 49 0
-25 49 0
-49 48 25 0
-49 -50 0
49 50 0
-51 -41 0
-51 -47 0
41 47 51 0
-52 -38 0
-52 -41 0
-52 -45 0
38 41 45 52 0
-53 -35 0
-53 -38 0
-53 -41 0
-53 -43 0
35 38 41 43 53 0
-50 54 0
-51 54 0
-52 54 0
-53 54 0
-54 50 51 52 53 0
-55 -12 0
-55 28 0
12 -28 55 0
-56 12 0
-56 -28 0
-12 28 56 0
-55 57 0
-56 57 0
-57 55 56 0
-58 -57 0
-58 -35 0
-58 -38 0
-58 -41 0
57 35 38 41 58 0
-59 -54 0
-59 -58 0
54 58 59 0
-60 -54 0
-60 59 0
54 -59 60 0
-61 54 0
-61 -59 0
-54 59 61 0
-60 62 0
-61 62 0
-62 60 61 0
-63 -7 0
-63 23 0
7 -23 63 0
-64 7 0
-64 -23 0
-7 23 64 0
-63 65 0
-64 65 0
-65 63 64 0
-66 -6 0
-66 22 0
6 -22 66 0
-67 6 0
-67 -22 0
-6 22 67 0
-66 68 0
-67 68 0
-68 66 67 0
-69 -5 0
-69 21 0
5 -21 69 0
-70 5 0
-70 -21 0
-5 21 70 0
-69 71 0
-70 71 0
-71 69 70 0
-8 -72 0
8 72 0
-72 73 0
-24 73 0
-73 72 24 0
-7 -74 0
7 74 0
-74 75 0
-23 75 0
-75 74 23 0
-6 -76 0
6 76 0
-76 77 0
-22 77 0
-77 76 22 0
-5 -78 0
5 78 0
-78 79 0
-21 79 0
-79 78 21 0
-79 -80 0
79 80 0
-81 -71 0
-81 -77 0
71 77 81 0
-82 -68 0
-82 -71 0
-82 -75 0
68 71 75 82 0
-83 -65 0
-83 -68 0
-83 -71 0
-83 -73 0
65 68 71 73 83 0
-80 84 0
-81 84 0
-82 84 0
-83 84 0
-84 80 81 82 83 0
-85 -8 0
-85 24 0
8 -24 85 0
-86 8 0
-86 -24 0
-8 24 86 0
-85 87 0
-86 87 0
-87 85 86 0
-88 -87 0
-88 -65 0
-88 -68 0
-88 -71 0
87 65 68 71 88 0
-89 -84 0
-89 -88 0
84 88 89 0
-90 -84 0
-90 89 0
84 -89 90 0
-91 84 0
-91 -89 0
-84 89 91 0
-90 92 0
-91 92 0
-92 90 91 0
-93 -3 0
-93 19 0
3 -19 93 0
-94 3 0
-94 -19 0
-3 19 94 0
-93 95 0
-94 95 0
-95 93 94 0
-96 -2 0
-96 18 0
2 -18 96 0
-97 2 0
-97 -18 0
-2 18 97 0
-96 98 0
-97 98 0
-98 96 97 0
-99 -1 0
-99 17 0
1 -17 99 0
-100 1 0
-100 -17 0
-1 17 100 0
-99 101 0
-100 101 0
-101 99 100 0
-4 -102 0
4 102 0
-102 103 0
-20 103 0
-103 102 20 0
-3 -104 0
3 104 0
-104 105 0
-19 105 0
-105 104 19 0
-2 -106 0
2 106 0
-106 107 0
-18 107 0
-107 106 18 0
-1 -108 0
1 108 0
-108 109 0
-17 109 0
-109 108 17 0
-109 -110 0
109 110 0
-111 -101 0
-111 -107 0
101 107 111 0
-112 -98 0
-112 -101 0
-112 -105 0
98 101 105 112 0
-113 -95 0
-113 -98 0
-113 -101 0
-113 -103 0
95 98 101 103 113 0
-110 114 0
-111 114 0
-112 114 0
-113 114 0
-114 110 111 112 113 0
-115 -4 0
-115 20 0
4 -20 115 0
-116 4 0
-116 -20 0
-4 20 116 0
-115 117 0
-116 117 0
-117 115 116 0
-118 -117 0
-118 -95 0
-118 -98 0
-118 -101 0
117 95 98 101 118 0
-119 -114 0
-119 -118 0
114 118 119 0
-120 -114 0
-120 119 0
114 -119 120 0
-121 114 0
-121 -119 0
-114 119 121 0
-120 122 0
-121 122 0
-122 120 121 0
-123 -15 0
-123 31 0
15 -31 123 0
-124 15 0
-124 -31 0
-15 31 124 0
-123 125 0
-124 125 0
-125 123 124 0
-126 -14 0
-126 30 0
14 -30 126 0
-127 14 0
-127 -30 0
-14 30 127 0
-126 128 0
-127 128 0
-128 126 127 0
-129 -13 0
-129 29 0
13 -29 129 0
-130 13 0
-130 -29 0
-13 29 130 0
-129 131 0
-130 131 0
-131 129 130 0
-16 -132 0
16 132 0
-132 133 0
-32 133 0
-133 132 32 0
-15 -134 0
15 134 0
-134 135 0
-31 135 0
-135 134 31 0
-14 -136 0
14 136 0
-136 137 0
-30 137 0
-137 136 30 0
-13 -138 0
13 138 0
-138 139 0
-29 139 0
-139 138 29 0
-139 -140 0
139 140 0
-141 -131 0
-141 -137 0
131 137 141 0
-142 -128 0
-142 -131 0
-142 -135 0
128 131 135 142 0
-143 -125 0
-143 -128 0
-143 -131 0
-143 -133 0
125 128 131 133 143 0
-140 144 0
-141 144 0
-142 144 0
-143 144 0
-144 140 141 142 143 0
-145 -16 0
-145 32 0
16 -32 145 0
-146 16 0
-146 -32 0
-16 32 146 0
-145 147 0
-146 147 0
-147 145 146 0
-148 -147 0
-148 -125 0
-148 -128 0
-148 -131 0
147 125 128 131 148 0
-149 -144 0
-149 -148 0
144 148 149 0
-144 -150 0
144 150 0
-150 151 0
-149 151 0
-151 150 149 0
-54 -152 0
54 152 0
-152 153 0
-59 153 0
-153 152 59 0
-84 -154 0
84 154 0
-154 155 0
-89 155 0
-155 154 89 0
-114 -156 0
114 156 0
-156 157 0
-119 157 0
-157 156 119 0
-157 -158 0
157 158 0
-159 -122 0
-159 -155 0
122 155 159 0
-160 -92 0
-160 -122 0
-160 -153 0
92 122 153 160 0
-161 -62 0
-161 -92 0
-161 -122 0
-161 -151 0
62 92 122 151 161 0
-158 162 0
-159 162 0
-160 162 0
-161 162 0
-162 158 159 160 161 0
-163 -144 0
-163 149 0
144 -149 163 0
-164 144 0
-164 -149 0
-144 149 164 0
-163 165 0
-164 165 0
-165 163 164 0
-166 -165 0
-166 -62 0
-166 -92 0
-166 -122 0
165 62 92 122 166 0
-167 -162 0
-167 -166 0
162 166 167 0
-182 -11 0
-182 27 0
11 -27 182 0
-183 11 0
-183 -27 0
-11 27 183 0
-182 184 0
-183 184 0
-184 182 183 0
-185 -10 0
-185 26 0
10 -26 185 0
-186 10 0
-186 -26 0
-10 26 186 0
-185 187 0
-186 187 0
-187 185 186 0
-188 -9 0
-188 25 0
9 -25 188 0
-189 9 0
-189 -25 0
-9 25 189 0
-188 190 0
-189 190 0
-190 188 189 0
-12 -191 0
12 191 0
-191 192 0
-28 192 0
-192 191 28 0
-11 -193 0
11 193 0
-193 194 0
-27 194 0
-194 193 27 0
-10 -195 0
10 195 0
-195 196 0
-26 196 0
-196 195 26 0
-9 -197 0
9 197 0
-197 198 0
-25 198 0
-198 197 25 0
-198 -199 0
198 199 0
-200 -190 0
-200 -196 0
190 196 200 0
-201 -187 0
-201 -190 0
-201 -194 0
187 190 194 201 0
-202 -184 0
-202 -187 0
-202 -190 0
-202 -192 0
184 187 190 192 202 0
-199 203 0
-200 203 0
-201 203 0
-202 203 0
-203 199 200 201 202 0
-204 -12 0
-204 28 0
12 -28 204 0
-205 12 0
-205 -28 0
-12 28 205 0
-204 206 0
-205 206 0
-206 204 205 0
-207 -206 0
-207 -184 0
-207 -187 0
-207 -190 0
206 184 187 190 207 0
-208 -203 0
-208 -207 0
203 207 208 0
-209 -203 0
-209 208 0
203 -208 209 0
-210 203 0
-210 -208 0
-203 208 210 0
-209 211 0
-210 211 0
-211 209 210 0
-212 -7 0
-212 23 0
7 -23 212 0
-213 7 0
-213 -23 0
-7 23 213 0
-212 214 0
-213 214 0
-214 212 213 0
-215 -6 0
-215 22 0
6 -22 215 0
-216 6 0
-216 -22 0
-6 22 216 0
-215 217 0
-216 217 0
-217 215 216 0
-218 -5 0
-218 21 0
5 -21 218 0
-219 5 0
-219 -21 0
-5 21 219 0
-218 220 0
-219 220 0
-220 218 219 0
-8 -221 0
8 221 0
-221 -222 0
221 222 0
-222 223 0
-24 223 0
-223 222 24 0
-7 -224 0
7 224 0
-224 225 0
-23 225 0
-225 224 23 0
-6 -226 0
6 226 0
-226 227 0
-22 227 0
-227 226 22 0
-5 -228 0
5 228 0
-228 229 0
-21 229 0
-229 228 21 0
-229 -230 0
229 230 0
-231 -220 0
-231 -227 0
220 227 231 0
-232 -217 0
-232 -220 0
-232 -225 0
217 220 225 232 0
-233 -214 0
-233 -217 0
-233 -220 0
-233 -223 0
214 217 220 223 233 0
-230 234 0
-231 234 0
-232 234 0
-233 234 0
-234 230 231 232 233 0
-235 -8 0
-235 24 0
8 -24 235 0
-236 8 0
-236 -24 0
-8 24 236 0
-235 237 0
-236 237 0
-237 235 236 0
-238 -237 0
-238 -214 0
-238 -217 0
-238 -220 0
237 214 217 220 238 0
-239 -234 0
-239 -238 0
234 238 239 0
-240 -234 0
-240 239 0
234 -239 240 0
-241 234 0
-241 -239 0
-234 239 241 0
-240 242 0
-241 242 0
-242 240 241 0
-243 -3 0
-243 19 0
3 -19 243 0
-244 3 0
-244 -19 0
-3 19 244 0
-243 245 0
-244 245 0
-245 243 244 0
-246 -2 0
-246 18 0
2 -18 246 0
-247 2 0
-247 -18 0
-2 18 247 0
-246 248 0
-247 248 0
-248 246 247 0
-4 -249 0
4 249 0
-249 250 0
-20 250 0
-250 249 20 0
-3 -251 0
3 251 0
-251 252 0
-19 252 0
-252 251 19 0
-2 -253 0
2 253 0
-253 254 0
-18 254 0
-254 253 18 0
-1 -255 0
1 255 0
-255 256 0
-17 256 0
-256 255 17 0
-256 -257 0
256 257 0
-258 -168 0
-258 -254 0
168 254 258 0
-259 -248 0
-259 -168 0
-259 -252 0
248 168 252 259 0
-260 -245 0
-260 -248 0
-260 -168 0
-260 -250 0
245 248 168 250 260 0
-257 261 0
-258 261 0
-259 261 0
-260 261 0
-261 257 258 259 260 0
-262 -4 0
-262 20 0
4 -20 262 0
-263 4 0
-263 -20 0
-4 20 263 0
-262 264 0
-263 264 0
-264 262 263 0
-265 -264 0
-265 -245 0
-265 -248 0
-265 -168 0
264 245 248 168 265 0
-266 -261 0
-266 -265 0
261 265 266 0
-267 -261 0
-267 266 0
261 -266 267 0
-268 261 0
-268 -266 0
-261 266 268 0
-267 269 0
-268 269 0
-269 267 268 0
-203 -270 0
203 270 0
-270 271 0
-208 271 0
-271 270 208 0
-234 -272 0
234 272 0
-272 273 0
-239 273 0
-273 272 239 0
-261 -274 0
261 274 0
-274 275 0
-266 275 0
-275 274 266 0
-275 -276 0
275 276 0
-277 -269 0
-277 -273 0
269 273 277 0
-278 -242 0
-278 -269 0
-278 -271 0
242 269 271 278 0
-279 -211 0
-279 -242 0
-279 -269 0
-279 -169 0
211 242 269 169 279 0
-276 280 0
-277 280 0
-278 280 0
-279 280 0
-280 276 277 278 279 0
-281 -170 0
-281 171 0
170 -171 281 0
-282 170 0
-282 -171 0
-170 171 282 0
-281 283 0
-282 283 0
-283 281 282 0
-284 -283 0
-284 -211 0
-284 -242 0
-284 -269 0
283 211 242 269 284 0
-285 -280 0
-285 -284 0
280 284 285 0
-286 -15 0
-286 31 0
15 -31 286 0
-287 15 0
-287 -31 0
-15 31 287 0
-286 288 0
-287 288 0
-288 286 287 0
-289 -14 0
-289 30 0
14 -30 289 0
-290 14 0
-290 -30 0
-14 30 290 0
-289 291 0
-290 291 0
-291 289 290 0
-292 -13 0
-292 29 0
13 -29 292 0
-293 13 0
-293 -29 0
-13 29 293 0
-292 294 0
-293 294 0
-294 292 293 0
-16 -295 0
16 295 0
-295 296 0
-32 296 0
-296 295 32 0
-15 -297 0
15 297 0
-297 298 0
-31 298 0
-298 297 31 0
-14 -299 0
14 299 0
-299 300 0
-30 300 0
-300 299 30 0
-13 -301 0
13 301 0
-301 302 0
-29 302 0
-302 301 29 0
-303 -16 0
-303 32 0
16 -32 303 0
-304 16 0
-304 -32 0
-16 32 304 0
-303 305 0
-304 305 0
-305 303 304 0
-306 -305 0
-306 -288 0
-306 -291 0
-306 -294 0
305 288 291 294 306 0
-307 -167 285 0
-307 167 -285 0
307 -167 -285 0
307 167 285 0
-308 -166 284 0
-308 166 -284 0
308 -166 -284 0
308 166 284 0
-309 -162 280 0
-309 162 -280 0
309 -162 -280 0
309 162 280 0
-307 -308 -309 310 0
-310 307 0
-310 308 0
-310 309 0
-1 -172 -311 0
-1 172 311 0
1 -172 311 0
1 172 -311 0
-17 -173 -312 0
-17 173 312 0
17 -173 312 0
17 173 -312 0
-288 -174 -313 0
-288 174 313 0
288 -174 313 0
288 174 -313 0
-291 -175 -314 0
-291 175 314 0
291 -175 314 0
291 175 -314 0
-294 -176 -315 0
-294 176 315 0
294 -176 315 0
294 176 -315 0
-296 -177 -316 0
-296 177 316 0
296 -177 316 0
296 177 -316 0
-298 -178 -317 0
-298 178 317 0
298 -178 317 0
298 178 -317 0
-300 -179 -318 0
-300 179 318 0
300 -179 318 0
300 179 -318 0
-302 -180 -319 0
-302 180 319 0
302 -180 319 0
302 180 -319 0
-306 -181 -320 0
-306 181 320 0
306 -181 320 0
306 181 -320 0
311 312 313 314 315 316 317 318 319 320 310 0
-11 -1175 0
27 -1175 0
11 -27 1175 0
11 -1176 0
-27 -1176 0
-11 27 1176 0
-33 -1177 0
-34 -1177 0
33 34 1177 0
-10 -1178 0
26 -1178 0
10 -26 1178 0
10 -1179 0
-26 -1179 0
-10 26 1179 0
-36 -1180 0
-37 -1180 0
36 37 1180 0
-9 -1181 0
25 -1181 0
9 -25 1181 0
9 -1182 0
-25 -1182 0
-9 25 1182 0
-39 -1183 0
-40 -1183 0
39 40 1183 0
-28 -1184 0
-42 -1184 0
28 42 1184 0
-27 -1185 0
-44 -1185 0
27 44 1185 0
-26 -1186 0
-46 -1186 0
26 46 1186 0
-25 -1187 0
-48 -1187 0
25 48 1187 0
-41 -1188 0
-47 -1188 0
41 47 1188 0
-38 -1189 0
-41 -1189 0
38 41 1189 0
-45 -1190 0
1189 -1190 0
45 -1189 1190 0
-35 -1191 0
1189 -1191 0
35 -1189 1191 0
-43 -1192 0
1191 -1192 0
43 -1191 1192 0
-50 -1193 0
-51 -1193 0
50 51 1193 0
-52 -1194 0
-53 -1194 0
52 53 1194 0
1193 -1195 0
1194 -1195 0
-1193 -1194 1195 0
-12 -1196 0
28 -1196 0
12 -28 1196 0
12 -1197 0
-28 -1197 0
-12 28 1197 0
-55 -1198 0
-56 -1198 0
55 56 1198 0
-57 -1199 0
1191 -1199 0
57 -1191 1199 0
-54 -1200 0
-58 -1200 0
54 58 1200 0
-54 -1201 0
59 -1201 0
54 -59 1201 0
54 -1202 0
-59 -1202 0
-54 59 1202 0
-60 -1203 0
-61 -1203 0
60 61 1203 0
-7 -1204 0
23 -1204 0
7 -23 1204 0
7 -1205 0
-23 -1205 0
-7 23 1205 0
-63 -1206 0
-64 -1206 0
63 64 1206 0
-6 -1207 0
22 -1207 0
6 -22 1207 0
6 -1208 0
-22 -1208 0
-6 22 1208 0
-66 -1209 0
-67 -1209 0
66 67 1209 0
-5 -1210 0
21 -1210 0
5 -21 1210 0
5 -1211 0
-21 -1211 0
-5 21 1211 0
-69 -1212 0
-70 -1212 0
69 70 1212 0
-24 -1213 0
-72 -1213 0
24 72 1213 0
-23 -1214 0
-74 -1214 0
23 74 1214 0
-22 -1215 0
-76 -1215 0
22 76 1215 0
-21 -1216 0
-78 -1216 0
21 78 1216 0
-71 -1217 0
-77 -1217 0
71 77 1217 0
-68 -1218 0
-71 -1218 0
68 71 1218 0
-75 -1219 0
1218 -1219 0
75 -1218 1219 0
-65 -1220 0
1218 -1220 0
65 -1218 1220 0
-73 -1221 0
1220 -1221 0
73 -1220 1221 0
-80 -1222 0
-81 -1222 0
80 81 1222 0
-82 -1223 0
-83 -1223 0
82 83 1223 0
1222 -1224 0
1223 -1224 0
-1222 -1223 1224 0
-8 -1225 0
24 -1225 0
8 -24 1225 0
8 -1226 0
-24 -1226 0
-8 24 1226 0
-85 -1227 0
-86 -1227 0
85 86 1227 0
-87 -1228 0
1220 -1228 0
87 -1220 1228 0
-84 -1229 0
-88 -1229 0
84 88 1229 0
-84 -1230 0
89 -1230 0
84 -89 1230 0
84 -1231 0
-89 -1231 0
-84 89 1231 0
-90 -1232 0
-91 -1232 0
90 91 1232 0
-3 -1233 0
19 -1233 0
3 -19 1233 0
3 -1234 0
-19 -1234 0
-3 19 1234 0
-93 -1235 0
-94 -1235 0
93 94 1235 0
-2 -1236 0
18 -1236 0
2 -18 1236 0
2 -1237 0
-18 -1237 0
-2 18 1237 0
-96 -1238 0
-97 -1238 0
96 97 1238 0
-1 -1239 0
17 -1239 0
1 -17 1239 0
1 -1240 0
-17 -1240 0
-1 17 1240 0
-99 -1241 0
-100 -1241 0
99 100 1241 0
-20 -1242 0
-102 -1242 0
20 102 1242 0
-19 -1243 0
-104 -1243 0
19 104 1243 0
-18 -1244 0
-106 -1244 0
18 106 1244 0
-17 -1245 0
-108 -1245 0
17 108 1245 0
-101 -1246 0
-107 -1246 0
101 107 1246 0
-98 -1247 0
-101 -1247 0
98 101 1247 0
-105 -1248 0
1247 -1248 0
105 -1247 1248 0
-95 -1249 0
1247 -1249 0
95 -1247 1249 0
-103 -1250 0
1249 -1250 0
103 -1249 1250 0
-110 -1251 0
-111 -1251 0
110 111 1251 0
-112 -1252 0
-113 -1252 0
112 113 1252 0
1251 -1253 0
1252 -1253 0
-1251 -1252 1253 0
-4 -1254 0
20 -1254 0
4 -20 1254 0
4 -1255 0
-20 -1255 0
-4 20 1255 0
-115 -1256 0
-116 -1256 0
115 116 1256 0
-117 -1257 0
1249 -1257 0
117 -1249 1257 0
-114 -1258 0
-118 -1258 0
114 118 1258 0
-114 -1259 0
119 -1259 0
114 -119 1259 0
114 -1260 0
-119 -1260 0
-114 119 1260 0
-120 -1261 0
-121 -1261 0
120 121 1261 0
-15 -1262 0
31 -1262 0
15 -31 1262 0
15 -1263 0
-31 -1263 0
-15 31 1263 0
-123 -1264 0
-124 -1264 0
123 124 1264 0
-14 -1265 0
30 -1265 0
14 -30 1265 0
14 -1266 0
-30 -1266 0
-14 30 1266 0
-126 -1267 0
-127 -1267 0
126 127 1267 0
-13 -1268 0
29 -1268 0
13 -29 1268 0
13 -1269 0
-29 -1269 0
-13 29 1269 0
-129 -1270 0
-130 -1270 0
129 130 1270 0
-32 -1271 0
-132 -1271 0
32 132 1271 0
-31 -1272 0
-134 -1272 0
31 134 1272 0
-30 -1273 0
-136 -1273 0
30 136 1273 0
-29 -1274 0
-138 -1274 0
29 138 1274 0
-131 -1275 0
-137 -1275 0
131 137 1275 0
-128 -1276 0
-131 -1276 0
128 131 1276 0
-135 -1277 0
1276 -1277 0
135 -1276 1277 0
-125 -1278 0
1276 -1278 0
125 -1276 1278 0
-133 -1279 0
1278 -1279 0
133 -1278 1279 0
-140 -1280 0
-141 -1280 0
140 141 1280 0
-142 -1281 0
-143 -1281 0
142 143 1281 0
1280 -1282 0
1281 -1282 0
-1280 -1281 1282 0
-16 -1283 0
32 -1283 0
16 -32 1283 0
16 -1284 0
-32 -1284 0
-16 32 1284 0
-145 -1285 0
-146 -1285 0
145 146 1285 0
-147 -1286 0
1278 -1286 0
147 -1278 1286 0
-144 -1287 0
-148 -1287 0
144 148 1287 0
-149 -1288 0
-150 -1288 0
149 150 1288 0
-59 -1289 0
-152 -1289 0
59 152 1289 0
-89 -1290 0
-154 -1290 0
89 154 1290 0
-119 -1291 0
-156 -1291 0
119 156 1291 0
-122 -1292 0
-155 -1292 0
122 155 1292 0
-92 -1293 0
-122 -1293 0
92 122 1293 0
-153 -1294 0
1293 -1294 0
153 -1293 1294 0
-62 -1295 0
1293 -1295 0
62 -1293 1295 0
-151 -1296 0
1295 -1296 0
151 -1295 1296 0
-158 -1297 0
-159 -1297 0
158 159 1297 0
-160 -1298 0
-161 -1298 0
160 161 1298 0
1297 -1299 0
1298 -1299 0
-1297 -1298 1299 0
-144 -1300 0
149 -1300 0
144 -149 1300 0
144 -1301 0
-149 -1301 0
-144 149 1301 0
-163 -1302 0
-164 -1302 0
163 164 1302 0
-165 -1303 0
1295 -1303 0
165 -1295 1303 0
-162 -1304 0
-166 -1304 0
162 166 1304 0
-182 -1305 0
-183 -1305 0
182 183 1305 0
-185 -1306 0
-186 -1306 0
185 186 1306 0
-188 -1307 0
-189 -1307 0
188 189 1307 0
-28 -1308 0
-191 -1308 0
28 191 1308 0
-27 -1309 0
-193 -1309 0
27 193 1309 0
-26 -1310 0
-195 -1310 0
26 195 1310 0
-25 -1311 0
-197 -1311 0
25 197 1311 0
-190 -1312 0
-196 -1312 0
190 196 1312 0
-187 -1313 0
-190 -1313 0
187 190 1313 0
-194 -1314 0
1313 -1314 0
194 -1313 1314 0
-184 -1315 0
1313 -1315 0
184 -1313 1315 0
-192 -1316 0
1315 -1316 0
192 -1315 1316 0
-199 -1317 0
-200 -1317 0
199 200 1317 0
-201 -1318 0
-202 -1318 0
201 202 1318 0
1317 -1319 0
1318 -1319 0
-1317 -1318 1319 0
-204 -1320 0
-205 -1320 0
204 205 1320 0
-206 -1321 0
1315 -1321 0
206 -1315 1321 0
-203 -1322 0
-207 -1322 0
203 207 1322 0
-203 -1323 0
208 -1323 0
203 -208 1323 0
203 -1324 0
-208 -1324 0
-203 208 1324 0
-209 -1325 0
-210 -1325 0
209 210 1325 0
-212 -1326 0
-213 -1326 0
212 213 1326 0
-215 -1327 0
-216 -1327 0
215 216 1327 0
-218 -1328 0
-219 -1328 0
218 219 1328 0
-24 -1329 0
-222 -1329 0
24 222 1329 0
-23 -1330 0
-224 -1330 0
23 224 1330 0
-22 -1331 0
-226 -1331 0
22 226 1331 0
-21 -1332 0
-228 -1332 0
21 228 1332 0
-220 -1333 0
-227 -1333 0
220 227 1333 0
-217 -1334 0
-220 -1334 0
217 220 1334 0
-225 -1335 0
1334 -1335 0
225 -1334 1335 0
-214 -1336 0
1334 -1336 0
214 -1334 1336 0
-223 -1337 0
1336 -1337 0
223 -1336 1337 0
-230 -1338 0
-231 -1338 0
230 231 1338 0
-232 -1339 0
-233 -1339 0
232 233 1339 0
1338 -1340 0
1339 -1340 0
-1338 -1339 1340 0
-235 -1341 0
-236 -1341 0
235 236 1341 0
-237 -1342 0
1336 -1342 0
237 -1336 1342 0
-234 -1343 0
-238 -1343 0
234 238 1343 0
-234 -1344 0
239 -1344 0
234 -239 1344 0
234 -1345 0
-239 -1345 0
-234 239 1345 0
-240 -1346 0
-241 -1346 0
240 241 1346 0
-243 -1347 0
-244 -1347 0
243 244 1347 0
-246 -1348 0
-247 -1348 0
246 247 1348 0
-20 -1349 0
-249 -1349 0
20 249 1349 0
-19 -1350 0
-251 -1350 0
19 251 1350 0
-18 -1351 0
-253 -1351 0
18 253 1351 0
-17 -1352 0
-255 -1352 0
17 255 1352 0
-257 -1353 0
-258 -1353 0
257 258 1353 0
-259 -1354 0
-260 -1354 0
259 260 1354 0
1353 -1355 0
1354 -1355 0
-1353 -1354 1355 0
-262 -1356 0
-263 -1356 0
262 263 1356 0
-261 -1357 0
-265 -1357 0
261 265 1357 0
-261 -1358 0
266 -1358 0
261 -266 1358 0
261 -1359 0
-266 -1359 0
-261 266 1359 0
-267 -1360 0
-268 -1360 0
267 268 1360 0
-208 -1361 0
-270 -1361 0
208 270 1361 0
-239 -1362 0
-272 -1362 0
239 272 1362 0
-266 -1363 0
-274 -1363 0
266 274 1363 0
-269 -1364 0
-273 -1364 0
269 273 1364 0
-242 -1365 0
-269 -1365 0
242 269 1365 0
-271 -1366 0
1365 -1366 0
271 -1365 1366 0
-276 -1367 0
-277 -1367 0
276 277 1367 0
-278 -1368 0
-279 -1368 0
278 279 1368 0
1367 -1369 0
1368 -1369 0
-1367 -1368 1369 0
-281 -1370 0
-282 -1370 0
281 282 1370 0
-211 -1371 0
-283 -1371 0
211 283 1371 0
1365 -1372 0
1371 -1372 0
-1365 -1371 1372 0
-280 -1373 0
-284 -1373 0
280 284 1373 0
-286 -1374 0
-287 -1374 0
286 287 1374 0
-289 -1375 0
-290 -1375 0
289 290 1375 0
-292 -1376 0
-293 -1376 0
292 293 1376 0
-32 -1377 0
-295 -1377 0
32 295 1377 0
-31 -1378 0
-297 -1378 0
31 297 1378 0
-30 -1379 0
-299 -1379 0
30 299 1379 0
-29 -1380 0
-301 -1380 0
29 301 1380 0
-303 -1381 0
-304 -1381 0
303 304 1381 0
-288 -1382 0
-291 -1382 0
288 291 1382 0
-294 -1383 0
-305 -1383 0
294 305 1383 0
1382 -1384 0
1383 -1384 0
-1382 -1383 1384 0
167 -1385 0
-285 -1385 0
-167 285 1385 0
-167 -1386 0
285 -1386 0
167 -285 1386 0
-1385 -1387 0
-1386 -1387 0
1385 1386 1387 0
166 -1388 0
-284 -1388 0
-166 284 1388 0
-166 -1389 0
284 -1389 0
166 -284 1389 0
-1388 -1390 0
-1389 -1390 0
1388 1389 1390 0
162 -1391 0
-280 -1391 0
-162 280 1391 0
-162 -1392 0
280 -1392 0
162 -280 1392 0
-1391 -1393 0
-1392 -1393 0
1391 1392 1393 0
307 -1394 0
308 -1394 0
-307 -308 1394 0
309 -1395 0
1394 -1395 0
-309 -1394 1395 0
-1 -1396 0
-172 -1396 0
1 172 1396 0
1 -1397 0
172 -1397 0
-1 -172 1397 0
-1396 -1398 0
-1397 -1398 0
1396 1397 1398 0
-17 -1399 0
-173 -1399 0
17 173 1399 0
17 -1400 0
173 -1400 0
-17 -173 1400 0
-1399 -1401 0
-1400 -1401 0
1399 1400 1401 0
-286 -1402 0
-1263 -1402 0
286 1263 1402 0
288 -1403 0
-1402 -1403 0
-288 1402 1403 0
-174 -1404 0
-1403 -1404 0
174 1403 1404 0
-288 -1405 0
-1263 -1405 0
288 1263 1405 0
174 -1406 0
-1405 -1406 0
-174 1405 1406 0
-31 -1407 0
286 -1407 0
31 -286 1407 0
-1406 -1408 0
-1407 -1408 0
1406 1407 1408 0
-1404 -1409 0
1408 -1409 0
1404 -1408 1409 0
-175 -1410 0
-291 -1410 0
175 291 1410 0
175 -1411 0
291 -1411 0
-175 -291 1411 0
-1410 -1412 0
-1411 -1412 0
1410 1411 1412 0
-176 -1413 0
-294 -1413 0
176 294 1413 0
176 -1414 0
294 -1414 0
-176 -294 1414 0
-1413 -1415 0
-1414 -1415 0
1413 1414 1415 0
-177 -1416 0
-296 -1416 0
177 296 1416 0
177 -1417 0
296 -1417 0
-177 -296 1417 0
-1416 -1418 0
-1417 -1418 0
1416 1417 1418 0
-178 -1419 0
-1263 -1419 0
178 1263 1419 0
178 -1420 0
1263 -1420 0
-178 -1263 1420 0
-1419 -1421 0
-1420 -1421 0
1419 1420 1421 0
-179 -1422 0
-1266 -1422 0
179 1266 1422 0
179 -1423 0
1266 -1423 0
-179 -1266 1423 0
-1422 -1424 0
-1423 -1424 0
1422 1423 1424 0
-180 -1425 0
-1269 -1425 0
180 1269 1425 0
180 -1426 0
1269 -1426 0
-180 -1269 1426 0
-1425 -1427 0
-1426 -1427 0
1425 1426 1427 0
-181 -1428 0
-306 -1428 0
181 306 1428 0
181 -1429 0
306 -1429 0
-181 -306 1429 0
-1428 -1430 0
-1429 -1430 0
1428 1429 1430 0
